(declare-const term_to_project_onto7 Real)
(declare-const next@width Int)
(declare-const |gl_list.next@pos'| Int)
(declare-const term_to_project_onto5 Real)
(declare-const |__cil_tmp3'| Int)
(declare-const term_to_project_onto4 Real)
(declare-const param0@pos Int)
(declare-const |gl_list.next'| Int)
(declare-const next@pos Int)
(declare-const __cil_tmp4 Int)
(declare-const type_err0 Int)
(declare-const term_to_project_onto1 Real)
(declare-const term_to_project_onto0 Real)
(declare-const gl_list.next@pos Int)
(declare-const |next'| Int)
(declare-const next Int)
(declare-const term_to_project_onto6 Real)
(declare-const tr0 Int)
(declare-const __cil_tmp3 Int)
(declare-const |param0'| Int)
(declare-const |gl_list.next@width'| Int)
(declare-const gl_list.next Int)
(declare-const term_to_project_onto2 Real)
(declare-const param0@width Int)
(declare-const |__cil_tmp4'| Int)
(declare-const param0 Int)
(declare-const store0 Int)
(declare-const store Int)
(declare-const |next@width'| Int)
(declare-const term_to_project_onto9 Real)
(declare-const type_err Int)
(declare-const |param0@pos'| Int)
(declare-const store1 Int)
(declare-const gl_list.next@width Int)
(declare-const term_to_project_onto Real)
(declare-const term_to_project_onto8 Real)
(declare-const |next@pos'| Int)
(declare-const tr Int)
(declare-const term_to_project_onto3 Real)
(declare-const |param0@width'| Int)
(assert (and (or (<= (+ (- tr) tr0 1) 0) (<= (+ tr (- tr0) 1) 0))
               (= (+ (- type_err0) |param0@width'|) 0)
               (= (+ |next@width'| (- type_err0)) 0)
               (= (+ (- store1) |gl_list.next@width'|) 0)
               (= (+ (- type_err) |param0@pos'| 4) 0)
               (= (+ |next@pos'| (- type_err)) 0)
               (= (+ (- store0) |gl_list.next@pos'|) 0)
               (= (+ |param0'| (- tr) 4) 0) (= (+ |__cil_tmp4'| (- tr0)) 0)
               (= (+ |__cil_tmp3'| (- tr)) 0) (= (+ |next'| (- tr)) 0)
               (= (+ (- store) |gl_list.next'|) 0)
               (= term_to_project_onto9 (+ |gl_list.next'| (- gl_list.next)))
               (= term_to_project_onto8 (+ |next'| (- next)))
               (= term_to_project_onto7 (+ |__cil_tmp3'| (- __cil_tmp3)))
               (= term_to_project_onto6 (+ |__cil_tmp4'| (- __cil_tmp4)))
               (= term_to_project_onto5 (+ |param0'| (- param0)))
               (= term_to_project_onto4 (+ |gl_list.next@pos'|
                                             (- gl_list.next@pos)))
               (= term_to_project_onto3 (+ |next@pos'| (- next@pos)))
               (= term_to_project_onto2 (+ |param0@pos'| (- param0@pos)))
               (= term_to_project_onto1 (+ |gl_list.next@width'|
                                             (- gl_list.next@width)))
               (= term_to_project_onto0 (+ |next@width'| (- next@width)))
               (= term_to_project_onto (+ |param0@width'| (- param0@width)))))
(check-sat)
